p cnf 7230 17
-3784 -4887 4889 0
-3710 -3712 -4232 4883 0
3712 -4883 0
4887 -4889 0
-2716 -4662 4884 0
2716 -4885 0
4232 -4883 0
-4886 4887 0
4888 -4889 0
-1 -4856 4886 0
1 -4887 0
-4884 4885 0
4662 -4885 0
4856 -4887 0
-4882 4883 0
4882 -4883 0
3784 -4889 0
